p cnf 14 64
2 -4 -8 0
-6 12 -13 0
1 -3 -12 0
-2 7 -12 0
1 -5 -9 0
8 -9 11 0
-8 -10 -14 0
-1 -6 -11 0
7 9 -11 0
2 -3 4 0
-6 9 11 0
-1 -4 13 0
-2 -4 -14 0
2 -5 12 0
-1 4 -11 0
-1 8 13 0
-5 11 14 0
-1 8 -13 0
-5 9 -12 0
-1 -11 12 0
2 3 9 0
-6 -8 -9 0
4 6 11 0
-1 -2 -5 0
11 13 -14 0
3 -9 -11 0
-4 8 12 0
3 -11 14 0
1 -4 7 0
5 12 13 0
-3 13 -14 0
2 -4 -10 0
-1 -9 -11 0
-7 -13 14 0
2 -7 12 0
7 -9 13 0
2 5 -13 0
2 6 11 0
-5 -11 14 0
-2 3 -8 0
2 6 -9 0
-1 -3 -10 0
9 11 13 0
4 5 -13 0
-1 -4 -7 0
-5 -8 -13 0
-7 -9 13 0
7 8 10 0
3 -4 -6 0
4 11 -13 0
-11 12 14 0
-6 13 14 0
1 2 -5 0
-9 10 -14 0
-4 -7 -12 0
7 -10 11 0
-6 7 -14 0
-1 9 -13 0
4 -12 -13 0
11 -13 14 0
8 -12 14 0
-5 12 -14 0
-3 9 -11 0
-1 2 10 0
